set C := 1 2 3 4 5 6 7 8 9 10;

param q :=
    1 36.85
    2 33.19
    3 19.41
    4 17.87
    5 26.24
    6 40.47
    7 39.54
    8 30.94
    9 18.29
    10 48.27;
param ca :=
    1 203.22
    2 176.46
    3 153.40
    4 207.00
    5 234.08
    6 208.37
    7 170.23
    8 249.58
    9 179.78
    10 193.65;
param cc :=
    1 37.94
    2 40.55
    3 45.92
    4 41.38
    5 49.64
    6 35.88
    7 47.21
    8 39.16
    9 41.00
    10 45.08;
param cp :=
    1 7.95
    2 10.42
    3 9.82
    4 5.02
    5 11.93
    6 11.88
    7 6.71
    8 11.26
    9 9.43
    10 8.60;
param sMin := 0;
param sMax := 80;

namespace t0
{
    set A :=;
    set AAnt := 1 2;
    set P := 3 4 5 6 7 8 9 10;
    set S := 1;

    param p :=
        1 1.0000000000;
    param d :=
        1 28.33;
    param h := 1;
    param s0 := 20;
}

namespace t1
{
    set AAnt :=;
    set P := 3 4 5 6 7 8 9 10;
    set PAnt := 3 4 5 6 7 8 9 10;
    set S := 1 2;

    param p :=
        1 0.5238626540
        2 0.4761373460;
    param d :=
        1 39.18
        2 35.84;
    param h := 1;
}

namespace t2
{
    set A2Ant :=;
    set P := 3 4 5 6 7 8 9 10;
    set PAnt := 3 4 5 6 7 8 9 10;
    set S := 1 2;

    param p :=
        1 0.6552529664
        2 0.3447470336;
    param d :=
        1 22.51
        2 25.68;
    param h := 1;
}

namespace t3
{
    set P := 3 4 5 6 7 8 9 10;
    set PAnt := 3 4 5 6 7 8 9 10;
    set S := 1 2;

    param p :=
        1 0.7611327189
        2 0.2388672811;
    param d :=
        1 13.43
        2 32.59;
    param h := 1;
}

namespace t4
{
    set PAnt := 3 4 5 6 7 8 9 10;
    set S := 1 2;

    param p :=
        1 0.8615913457
        2 0.1384086543;
    param d :=
        1 47.83
        2 31.64;
    param h := 1;
}
